
Gurobi 7.5.1 (win64, Python) logging started 10/12/17 19:04:03

Academic license - for non-commercial use only

Gurobi 7.5.1 (win64, Python) logging started 10/12/17 19:04:59

Academic license - for non-commercial use only

Gurobi 7.5.1 (win64, Python) logging started 10/12/17 19:09:20

Academic license - for non-commercial use only

Gurobi 7.5.1 (win64, Python) logging started 10/12/17 19:16:26

Academic license - for non-commercial use only

Gurobi 7.5.1 (win64, Python) logging started 10/12/17 19:18:47

Academic license - for non-commercial use only

Gurobi 7.5.1 (win64, Python) logging started 10/12/17 19:20:01

Academic license - for non-commercial use only

Gurobi 7.5.1 (win64, Python) logging started 10/12/17 19:20:21

Academic license - for non-commercial use only

Gurobi 7.5.1 (win64, Python) logging started 10/12/17 19:21:18

Academic license - for non-commercial use only

Gurobi 7.5.1 (win64, Python) logging started 10/12/17 19:22:58

Academic license - for non-commercial use only

Gurobi 7.5.1 (win64, Python) logging started 10/12/17 19:24:19

Academic license - for non-commercial use only

Gurobi 7.5.1 (win64, Python) logging started 10/12/17 19:29:15

Academic license - for non-commercial use only

Gurobi 7.5.1 (win64, Python) logging started 10/12/17 19:29:37

Academic license - for non-commercial use only

Gurobi 7.5.1 (win64, Python) logging started 10/12/17 19:30:46

Academic license - for non-commercial use only

Gurobi 7.5.1 (win64, Python) logging started 10/12/17 19:36:40

Academic license - for non-commercial use only

Gurobi 7.5.1 (win64, Python) logging started 10/12/17 19:37:17

Academic license - for non-commercial use only

Gurobi 7.5.1 (win64, Python) logging started 10/12/17 19:37:28

Academic license - for non-commercial use only

Gurobi 7.5.1 (win64, Python) logging started 10/12/17 19:38:17

Academic license - for non-commercial use only

Gurobi 7.5.1 (win64, Python) logging started 10/12/17 19:38:42

Academic license - for non-commercial use only

Gurobi 7.5.1 (win64, Python) logging started 10/12/17 19:38:48

Academic license - for non-commercial use only

Gurobi 7.5.1 (win64, Python) logging started 10/12/17 19:39:16

Academic license - for non-commercial use only

Gurobi 7.5.1 (win64, Python) logging started 10/12/17 19:42:15

Academic license - for non-commercial use only

Gurobi 7.5.1 (win64, Python) logging started 10/12/17 19:42:42

Academic license - for non-commercial use only

Gurobi 7.5.1 (win64, Python) logging started 10/12/17 19:42:45

Academic license - for non-commercial use only

Gurobi 7.5.1 (win64, Python) logging started 10/12/17 19:42:48

Academic license - for non-commercial use only

Gurobi 7.5.1 (win64, Python) logging started 10/12/17 19:42:50

Academic license - for non-commercial use only

Gurobi 7.5.1 (win64, Python) logging started 10/12/17 19:42:52

Academic license - for non-commercial use only

Gurobi 7.5.1 (win64, Python) logging started 10/12/17 19:42:54

Academic license - for non-commercial use only

Gurobi 7.5.1 (win64, Python) logging started 10/12/17 19:43:14

Academic license - for non-commercial use only

Gurobi 7.5.1 (win64, Python) logging started 10/12/17 19:43:39

Academic license - for non-commercial use only

Gurobi 7.5.1 (win64, Python) logging started 10/12/17 19:43:41

Academic license - for non-commercial use only

Gurobi 7.5.1 (win64, Python) logging started 10/12/17 19:43:46

Academic license - for non-commercial use only

Gurobi 7.5.1 (win64, Python) logging started 10/12/17 19:44:13

Academic license - for non-commercial use only

Gurobi 7.5.1 (win64, Python) logging started 10/12/17 21:48:48

Academic license - for non-commercial use only

Gurobi 7.5.1 (win64, Python) logging started 10/12/17 21:50:00

Academic license - for non-commercial use only

Gurobi 7.5.1 (win64, Python) logging started 10/12/17 21:51:28

Academic license - for non-commercial use only

Gurobi 7.5.1 (win64, Python) logging started 10/12/17 21:52:54

Academic license - for non-commercial use only

Gurobi 7.5.1 (win64, Python) logging started 10/12/17 21:53:56

Academic license - for non-commercial use only

Gurobi 7.5.1 (win64, Python) logging started 10/12/17 21:54:47

Academic license - for non-commercial use only

Gurobi 7.5.1 (win64, Python) logging started 10/12/17 22:01:58

Academic license - for non-commercial use only

Gurobi 7.5.1 (win64, Python) logging started 10/12/17 22:02:42

Academic license - for non-commercial use only

Gurobi 7.5.1 (win64, Python) logging started 10/12/17 22:10:07

Academic license - for non-commercial use only

Gurobi 7.5.1 (win64, Python) logging started 10/12/17 22:10:33

Academic license - for non-commercial use only

Gurobi 7.5.1 (win64, Python) logging started 10/12/17 22:11:21

Academic license - for non-commercial use only

Gurobi 7.5.1 (win64, Python) logging started 10/12/17 22:11:31

Academic license - for non-commercial use only

Gurobi 7.5.1 (win64, Python) logging started 10/12/17 22:13:03

Academic license - for non-commercial use only

Gurobi 7.5.1 (win64, Python) logging started 10/12/17 22:14:25

Academic license - for non-commercial use only

Gurobi 7.5.1 (win64, Python) logging started 10/12/17 22:20:04

Academic license - for non-commercial use only

Gurobi 7.5.1 (win64, Python) logging started 10/12/17 22:20:32

Academic license - for non-commercial use only

Gurobi 7.5.1 (win64, Python) logging started 10/12/17 22:20:47

Academic license - for non-commercial use only

Gurobi 7.5.1 (win64, Python) logging started 10/12/17 22:21:34

Academic license - for non-commercial use only

Gurobi 7.5.1 (win64, Python) logging started 10/12/17 22:21:53

Academic license - for non-commercial use only

Gurobi 7.5.1 (win64, Python) logging started 10/12/17 22:22:45

Academic license - for non-commercial use only

Gurobi 7.5.1 (win64, Python) logging started 10/12/17 22:23:18

Academic license - for non-commercial use only

Gurobi 7.5.1 (win64, Python) logging started 10/12/17 22:24:10

Academic license - for non-commercial use only

Gurobi 7.5.1 (win64, Python) logging started 10/12/17 22:24:44

Academic license - for non-commercial use only

Gurobi 7.5.1 (win64, Python) logging started 10/12/17 22:25:11

Academic license - for non-commercial use only

Gurobi 7.5.1 (win64, Python) logging started 10/12/17 22:25:20

Academic license - for non-commercial use only

Gurobi 7.5.1 (win64, Python) logging started 10/12/17 22:25:26

Academic license - for non-commercial use only

Gurobi 7.5.1 (win64, Python) logging started 10/12/17 22:25:43

Academic license - for non-commercial use only

Gurobi 7.5.1 (win64, Python) logging started 10/12/17 22:25:52

Academic license - for non-commercial use only

Gurobi 7.5.1 (win64, Python) logging started 10/12/17 22:27:00

Academic license - for non-commercial use only

Gurobi 7.5.1 (win64, Python) logging started 10/12/17 22:27:19

Academic license - for non-commercial use only

Gurobi 7.5.1 (win64, Python) logging started 10/12/17 22:27:49

Academic license - for non-commercial use only

Gurobi 7.5.1 (win64, Python) logging started 10/12/17 22:27:53

Academic license - for non-commercial use only

Gurobi 7.5.1 (win64, Python) logging started 10/12/17 22:28:09

Academic license - for non-commercial use only

Gurobi 7.5.1 (win64, Python) logging started 10/12/17 22:28:14

Academic license - for non-commercial use only

Gurobi 7.5.1 (win64, Python) logging started 10/12/17 22:34:42

Academic license - for non-commercial use only

Gurobi 7.5.1 (win64, Python) logging started 10/12/17 22:35:27

Academic license - for non-commercial use only

Gurobi 7.5.1 (win64, Python) logging started 10/12/17 22:35:47

Academic license - for non-commercial use only

Gurobi 7.5.1 (win64, Python) logging started 10/12/17 22:36:02

Academic license - for non-commercial use only

Gurobi 7.5.1 (win64, Python) logging started 10/12/17 22:36:38

Academic license - for non-commercial use only

Gurobi 7.5.1 (win64, Python) logging started 10/12/17 22:39:44

Academic license - for non-commercial use only

Gurobi 7.5.1 (win64, Python) logging started 10/12/17 22:40:03

Academic license - for non-commercial use only

Gurobi 7.5.1 (win64, Python) logging started 10/12/17 22:40:23

Academic license - for non-commercial use only

Gurobi 7.5.1 (win64, Python) logging started 10/12/17 22:44:39

Academic license - for non-commercial use only

Gurobi 7.5.1 (win64, Python) logging started 10/12/17 22:44:44

Academic license - for non-commercial use only

Gurobi 7.5.1 (win64, Python) logging started 10/12/17 22:44:46

Academic license - for non-commercial use only

Gurobi 7.5.1 (win64, Python) logging started 10/12/17 22:44:48

Academic license - for non-commercial use only

Gurobi 7.5.1 (win64, Python) logging started 10/12/17 22:44:51

Academic license - for non-commercial use only

Gurobi 7.5.1 (win64, Python) logging started 10/12/17 22:45:31

Academic license - for non-commercial use only

Gurobi 7.5.1 (win64, Python) logging started 10/12/17 22:45:34

Academic license - for non-commercial use only

Gurobi 7.5.1 (win64, Python) logging started 10/12/17 22:45:37

Academic license - for non-commercial use only

Gurobi 7.5.1 (win64, Python) logging started 10/12/17 22:45:41

Academic license - for non-commercial use only

Gurobi 7.5.1 (win64, Python) logging started 10/12/17 22:45:46

Academic license - for non-commercial use only

Gurobi 7.5.1 (win64, Python) logging started 10/12/17 22:46:31

Academic license - for non-commercial use only

Gurobi 7.5.1 (win64, Python) logging started 10/12/17 22:47:43

Academic license - for non-commercial use only

Gurobi 7.5.1 (win64, Python) logging started 10/12/17 22:48:36

Academic license - for non-commercial use only

Gurobi 7.5.1 (win64, Python) logging started 10/12/17 22:49:48

Academic license - for non-commercial use only

Gurobi 7.5.1 (win64, Python) logging started 10/12/17 22:50:47

Academic license - for non-commercial use only

Gurobi 7.5.1 (win64, Python) logging started 10/12/17 22:51:24

Academic license - for non-commercial use only

Gurobi 7.5.1 (win64, Python) logging started 10/12/17 22:51:26

Academic license - for non-commercial use only

Gurobi 7.5.1 (win64, Python) logging started 10/12/17 22:51:28

Academic license - for non-commercial use only

Gurobi 7.5.1 (win64, Python) logging started 10/12/17 22:51:41

Academic license - for non-commercial use only

Gurobi 7.5.1 (win64, Python) logging started 10/12/17 22:51:53

Academic license - for non-commercial use only

Gurobi 7.5.1 (win64, Python) logging started 10/12/17 22:52:45

Academic license - for non-commercial use only

Gurobi 7.5.1 (win64, Python) logging started 10/12/17 22:53:15

Academic license - for non-commercial use only

Gurobi 7.5.1 (win64, Python) logging started 10/12/17 22:53:42

Academic license - for non-commercial use only

Gurobi 7.5.1 (win64, Python) logging started 10/12/17 22:56:17

Academic license - for non-commercial use only

Gurobi 7.5.1 (win64, Python) logging started 10/12/17 22:57:29

Academic license - for non-commercial use only

Gurobi 7.5.1 (win64, Python) logging started 10/12/17 22:57:37

Academic license - for non-commercial use only

Gurobi 7.5.1 (win64, Python) logging started 10/12/17 22:57:58

Academic license - for non-commercial use only

Gurobi 7.5.1 (win64, Python) logging started 10/12/17 22:58:26

Academic license - for non-commercial use only

Gurobi 7.5.1 (win64, Python) logging started 10/12/17 22:58:53

Academic license - for non-commercial use only

Gurobi 7.5.1 (win64, Python) logging started 10/12/17 23:04:22

Academic license - for non-commercial use only

Gurobi 7.5.1 (win64, Python) logging started 10/12/17 23:04:32

Academic license - for non-commercial use only

Gurobi 7.5.1 (win64, Python) logging started 10/12/17 23:05:33

Academic license - for non-commercial use only

Gurobi 7.5.1 (win64, Python) logging started 10/12/17 23:06:11

Academic license - for non-commercial use only

Gurobi 7.5.1 (win64, Python) logging started 10/12/17 23:07:10

Academic license - for non-commercial use only

Gurobi 7.5.1 (win64, Python) logging started 10/12/17 23:07:34

Academic license - for non-commercial use only

Gurobi 7.5.1 (win64, Python) logging started 10/12/17 23:08:56

Academic license - for non-commercial use only

Gurobi 7.5.1 (win64, Python) logging started 10/12/17 23:09:46

Academic license - for non-commercial use only

Gurobi 7.5.1 (win64, Python) logging started 10/12/17 23:10:14

Academic license - for non-commercial use only

Gurobi 7.5.1 (win64, Python) logging started 10/12/17 23:10:16

Academic license - for non-commercial use only

Gurobi 7.5.1 (win64, Python) logging started 10/12/17 23:10:18

Academic license - for non-commercial use only

Gurobi 7.5.1 (win64, Python) logging started 10/12/17 23:10:20

Academic license - for non-commercial use only

Gurobi 7.5.1 (win64, Python) logging started 10/12/17 23:10:22

Academic license - for non-commercial use only

Gurobi 7.5.1 (win64, Python) logging started 10/12/17 23:10:24

Academic license - for non-commercial use only

Gurobi 7.5.1 (win64, Python) logging started 10/12/17 23:10:26

Academic license - for non-commercial use only

Gurobi 7.5.1 (win64, Python) logging started 10/12/17 23:10:54

Academic license - for non-commercial use only

Gurobi 7.5.1 (win64, Python) logging started 10/12/17 23:10:56

Academic license - for non-commercial use only

Gurobi 7.5.1 (win64, Python) logging started 10/12/17 23:10:58

Academic license - for non-commercial use only

Gurobi 7.5.1 (win64, Python) logging started 10/16/17 11:21:21

Academic license - for non-commercial use only

Gurobi 7.5.1 (win64, Python) logging started 10/16/17 11:42:17

Academic license - for non-commercial use only

Gurobi 7.5.1 (win64, Python) logging started 10/16/17 11:42:46

Academic license - for non-commercial use only

Gurobi 7.5.1 (win64, Python) logging started 10/16/17 11:44:42

Academic license - for non-commercial use only

Gurobi 7.5.1 (win64, Python) logging started 10/16/17 11:51:34

Academic license - for non-commercial use only

Gurobi 7.5.1 (win64, Python) logging started 10/16/17 11:52:00

Academic license - for non-commercial use only

Gurobi 7.5.1 (win64, Python) logging started 10/16/17 11:52:04

Academic license - for non-commercial use only

Gurobi 7.5.1 (win64, Python) logging started 10/16/17 11:52:06

Academic license - for non-commercial use only

Gurobi 7.5.1 (win64, Python) logging started 10/16/17 11:52:08

Academic license - for non-commercial use only

Gurobi 7.5.1 (win64, Python) logging started 10/16/17 11:53:31

Academic license - for non-commercial use only

Gurobi 7.5.1 (win64, Python) logging started 10/16/17 11:53:33

Academic license - for non-commercial use only

Gurobi 7.5.1 (win64, Python) logging started 10/16/17 11:53:35

Academic license - for non-commercial use only

Gurobi 7.5.1 (win64, Python) logging started 10/16/17 11:54:01

Academic license - for non-commercial use only

Gurobi 7.5.1 (win64, Python) logging started 10/16/17 11:54:31

Academic license - for non-commercial use only

Gurobi 7.5.1 (win64, Python) logging started 10/16/17 11:55:44

Academic license - for non-commercial use only

Gurobi 7.5.1 (win64, Python) logging started 10/16/17 11:55:53

Academic license - for non-commercial use only

Gurobi 7.5.1 (win64, Python) logging started 10/19/17 22:08:28

Academic license - for non-commercial use only

Gurobi 7.5.1 (win64, Python) logging started 10/19/17 22:09:01

Academic license - for non-commercial use only

Gurobi 7.5.1 (win64, Python) logging started 10/19/17 22:09:06

Academic license - for non-commercial use only

Gurobi 7.5.1 (win64, Python) logging started 10/19/17 22:09:08

Academic license - for non-commercial use only

Gurobi 7.5.1 (win64, Python) logging started 10/19/17 22:09:58

Academic license - for non-commercial use only

Gurobi 7.5.1 (win64, Python) logging started 10/19/17 22:10:00

Academic license - for non-commercial use only

Gurobi 7.5.1 (win64, Python) logging started 10/19/17 22:10:02

Academic license - for non-commercial use only

Gurobi 7.5.1 (win64, Python) logging started 10/19/17 22:11:41

Academic license - for non-commercial use only

Gurobi 7.5.1 (win64, Python) logging started 10/19/17 22:12:37

Academic license - for non-commercial use only

Gurobi 7.5.1 (win64, Python) logging started 10/19/17 22:14:28

Academic license - for non-commercial use only

Gurobi 7.5.1 (win64, Python) logging started 10/23/17 11:48:23

Academic license - for non-commercial use only

Gurobi 7.5.1 (win64, Python) logging started 10/23/17 11:50:13

Academic license - for non-commercial use only

Gurobi 7.5.1 (win64, Python) logging started 11/13/17 09:37:37

Academic license - for non-commercial use only

Gurobi 7.5.1 (win64, Python) logging started 11/13/17 09:42:10

Academic license - for non-commercial use only
